300
500 500
1 350 694
2 349 962
3 348 167
4 345 905
5 343 789
6 342 902
7 342 563
8 342 728
9 341 938
10 341 381
11 340 500
12 340 537
13 340 836
14 339 873
15 338 23
16 338 357
17 334 340
18 334 973
19 333 34
20 332 439
21 329 300
22 328 178
23 327 753
24 327 690
25 327 941
26 326 407
27 325 134
28 325 538
29 323 600
30 323 524
31 322 162
32 318 715
33 316 132
34 315 362
35 315 367
36 315 692
37 314 114
38 314 370
39 313 725
40 312 690
41 310 776
42 310 760
43 310 65
44 308 604
45 308 166
46 307 290
47 306 332
48 305 773
49 305 390
50 304 108
51 303 156
52 301 774
53 301 678
54 300 822
55 300 63
56 299 443
57 299 367
58 298 537
59 298 64
60 298 165
61 295 458
62 295 938
63 295 77
64 294 319
65 290 879
66 290 813
67 290 1
68 288 604
69 287 967
70 286 364
71 285 528
72 284 255
73 283 294
74 282 943
75 282 483
76 281 208
77 273 856
78 272 983
79 272 671
80 271 246
81 271 805
82 270 421
83 270 396
84 267 72
85 266 389
86 265 883
87 265 98
88 262 674
89 262 325
90 261 334
91 261 689
92 259 659
93 259 796
94 259 562
95 257 402
96 255 678
97 255 708
98 254 850
99 254 877
100 253 736
101 248 120
102 248 822
103 247 585
104 246 532
105 246 975
106 244 769
107 244 658
108 243 182
109 241 40
110 239 99
111 238 201
112 238 369
113 238 437
114 237 955
115 236 661
116 235 321
117 235 777
118 234 693
119 233 649
120 233 612
121 233 613
122 232 946
123 231 834
124 231 815
125 230 450
126 229 242
127 228 876
128 228 729
129 227 982
130 227 638
131 227 577
132 226 730
133 225 810
134 225 366
135 225 896
136 224 20
137 224 477
138 222 782
139 222 973
140 221 721
141 218 239
142 217 701
143 216 83
144 215 894
145 215 129
146 215 623
147 214 148
148 212 269
149 211 782
150 210 186
151 209 278
152 209 694
153 209 792
154 209 246
155 208 748
156 208 602
157 207 785
158 207 448
159 206 725
160 205 934
161 204 538
162 203 270
163 202 510
164 200 882
165 198 596
166 198 1000
167 197 124
168 197 571
169 196 468
170 196 423
171 194 748
172 194 404
173 192 867
174 192 345
175 191 993
176 190 389
177 190 812
178 189 599
179 188 85
180 187 411
181 186 459
182 185 196
183 184 189
184 181 662
185 178 908
186 178 526
187 178 95
188 176 120
189 176 188
190 175 434
191 174 368
192 174 868
193 174 675
194 173 303
195 173 539
196 173 241
197 173 647
198 173 52
199 172 264
200 172 521
201 171 779
202 168 674
203 168 904
204 167 286
205 167 56
206 167 891
207 166 803
208 165 281
209 164 206
210 162 901
211 162 555
212 160 504
213 160 706
214 159 63
215 159 361
216 159 10
217 158 613
218 157 814
219 156 779
220 156 662
221 155 359
222 155 858
223 154 808
224 153 462
225 150 889
226 150 924
227 148 295
228 147 774
229 146 730
230 145 351
231 145 72
232 144 402
233 143 193
234 143 362
235 143 915
236 142 191
237 140 850
238 140 827
239 138 842
240 138 880
241 138 84
242 137 57
243 134 334
244 134 332
245 134 936
246 133 618
247 132 110
248 132 484
249 131 631
250 130 814
251 130 167
252 130 659
253 130 722
254 130 355
255 130 182
256 127 112
257 127 635
258 126 623
259 126 345
260 124 125
261 124 836
262 123 785
263 122 296
264 121 970
265 121 448
266 121 270
267 121 518
268 120 212
269 120 924
270 120 974
271 120 951
272 120 758
273 118 667
274 117 532
275 117 921
276 116 221
277 116 370
278 116 345
279 115 371
280 115 562
281 113 620
282 113 433
283 113 93
284 113 187
285 111 154
286 111 138
287 111 832
288 110 408
289 109 305
290 109 641
291 109 26
292 107 622
293 106 184
294 105 529
295 105 559
296 104 523
297 103 486
298 101 557
299 101 832
300 101 623
